words_hard_train/5390.qaiger
aag 74 14 0 1 60
2
4
8
12
14
24
28
36
62
84
96
104
122
130
149
6 2 4
10 6 8
16 12 14
18 10 16
20 15 5
22 20 9
26 23 24
30 27 28
32 26 29
34 31 33
38 36 4
40 34 38
42 19 41
44 11 17
46 45 27
48 22 25
50 46 49
52 42 51
54 35 39
56 53 55
58 21 24
60 59 29
64 60 63
66 61 62
68 65 67
70 24 29
72 70 8
74 72 20
76 69 75
78 68 74
80 77 79
82 57 81
86 83 84
88 86 24
90 56 80
92 89 91
94 79 67
98 95 96
100 94 97
102 99 101
106 104 28
108 102 107
110 93 109
112 103 106
114 111 113
116 78 97
118 115 116
120 67 97
124 121 122
126 120 123
128 125 127
132 130 62
134 129 133
136 118 134
138 119 135
140 114 117
142 128 132
144 141 143
146 138 145
148 137 147
i0 2 y1[2]
i1 1 x1[2]
i2 1 x1[0]
i3 2 y1[3]
i4 1 x1[1]
i5 1 x1[3]
i6 1 x1[4]
i7 2 y1[4]
i8 1 x1[5]
i9 2 y1[5]
i10 1 x1[6]
i11 2 y1[6]
i12 1 x1[7]
i13 2 y1[7]
o0 bv[0]
c
simplified
  >
    subtract
      169
      1 x1
    and
      << 2
        1 x1
      2 y1
