words_hard_train/5390.qaiger.qdimacs
p cnf 74 181
a 2 4 7 12 14 48 61 31 0
e 1 3 5 6 8 9 10 11 13 15 16 17 18 19 20 21 22 23 24 25 26 27 28 29 30 32 33 34 35 36 37 38 39 40 41 42 43 44 45 46 47 49 50 51 52 53 54 55 56 57 58 59 60 62 63 64 65 66 67 68 69 70 71 72 73 74 0
-1 -2 3 0
1 -3 0
2 -3 0
-3 -4 5 0
3 -5 0
4 -5 0
-6 -7 8 0
6 -8 0
7 -8 0
-5 -8 9 0
5 -9 0
8 -9 0
7 2 10 0
-7 -10 0
-2 -10 0
-10 4 11 0
10 -11 0
-4 -11 0
11 -12 13 0
-11 -13 0
12 -13 0
13 -14 15 0
-13 -15 0
14 -15 0
-13 14 16 0
13 -16 0
-14 -16 0
15 16 17 0
-15 -17 0
-16 -17 0
-18 -2 19 0
18 -19 0
2 -19 0
-17 -19 20 0
17 -20 0
19 -20 0
9 20 21 0
-9 -21 0
-20 -21 0
5 8 22 0
-5 -22 0
-8 -22 0
22 13 23 0
-22 -23 0
-13 -23 0
-11 12 24 0
11 -24 0
-12 -24 0
-23 24 25 0
23 -25 0
-24 -25 0
-21 25 26 0
21 -26 0
-25 -26 0
17 19 27 0
-17 -27 0
-19 -27 0
26 27 28 0
-26 -28 0
-27 -28 0
10 -12 29 0
-10 -29 0
12 -29 0
29 14 30 0
-29 -30 0
-14 -30 0
-30 31 32 0
30 -32 0
-31 -32 0
30 -31 33 0
-30 -33 0
31 -33 0
32 33 34 0
-32 -34 0
-33 -34 0
-12 14 35 0
12 -35 0
-14 -35 0
-35 -4 36 0
35 -36 0
4 -36 0
-36 -10 37 0
36 -37 0
10 -37 0
34 37 38 0
-34 -38 0
-37 -38 0
-34 -37 39 0
34 -39 0
37 -39 0
38 39 40 0
-38 -40 0
-39 -40 0
28 40 41 0
-28 -41 0
-40 -41 0
41 -42 43 0
-41 -43 0
42 -43 0
-43 -12 44 0
43 -44 0
12 -44 0
-28 -40 45 0
28 -45 0
40 -45 0
44 45 46 0
-44 -46 0
-45 -46 0
39 33 47 0
-39 -47 0
-33 -47 0
47 -48 49 0
-47 -49 0
48 -49 0
-47 48 50 0
47 -50 0
-48 -50 0
49 50 51 0
-49 -51 0
-50 -51 0
-52 -14 53 0
52 -53 0
14 -53 0
-51 53 54 0
51 -54 0
-53 -54 0
46 54 55 0
-46 -55 0
-54 -55 0
51 -53 56 0
-51 -56 0
53 -56 0
55 56 57 0
-55 -57 0
-56 -57 0
-39 48 58 0
39 -58 0
-48 -58 0
57 -58 59 0
-57 -59 0
58 -59 0
33 48 60 0
-33 -60 0
-48 -60 0
60 -61 62 0
-60 -62 0
61 -62 0
-60 61 63 0
60 -63 0
-61 -63 0
62 63 64 0
-62 -64 0
-63 -64 0
-65 -31 66 0
65 -66 0
31 -66 0
64 66 67 0
-64 -67 0
-66 -67 0
-59 -67 68 0
59 -68 0
67 -68 0
59 67 69 0
-59 -69 0
-67 -69 0
-57 58 70 0
57 -70 0
-58 -70 0
-64 -66 71 0
64 -71 0
66 -71 0
70 71 72 0
-70 -72 0
-71 -72 0
-69 72 73 0
69 -73 0
-72 -73 0
68 73 74 0
-68 -74 0
-73 -74 0
-74 0
